p cnf 309 699
1 0
-2 0
-3 0
-4 0
-5 0
-6 0
-7 0
-8 0
-9 0
-10 0
1 -11 0
-1 11 0
12 13 0
14 13 0
-12 -14 -13 0
-2 13 -15 0
2 -13 -15 0
15 -13 -2 0
2 13 15 0
-15 0
16 17 0
18 17 0
-16 -18 -17 0
-12 17 -19 0
12 -17 -19 0
19 -17 -12 0
12 17 19 0
-19 0
20 21 0
22 21 0
-20 -22 -21 0
-16 21 -23 0
16 -21 -23 0
23 -21 -16 0
16 21 23 0
-23 0
24 25 0
26 25 0
-24 -26 -25 0
-20 25 -27 0
20 -25 -27 0
27 -25 -20 0
20 25 27 0
-27 0
28 29 0
30 29 0
-28 -30 -29 0
-24 29 -31 0
24 -29 -31 0
31 -29 -24 0
24 29 31 0
-31 0
32 33 0
34 33 0
-32 -34 -33 0
-28 33 -35 0
28 -33 -35 0
35 -33 -28 0
28 33 35 0
-35 0
36 37 0
38 37 0
-36 -38 -37 0
-32 37 -39 0
32 -37 -39 0
39 -37 -32 0
32 37 39 0
-39 0
40 41 0
42 41 0
-40 -42 -41 0
-36 41 -43 0
36 -41 -43 0
43 -41 -36 0
36 41 43 0
-43 0
34 44 0
45 44 0
30 44 0
38 44 0
42 44 0
-46 0
-40 44 -47 0
40 -44 -47 0
47 -44 -40 0
40 44 47 0
-47 0
48 49 0
50 49 0
-48 -50 -49 0
-3 49 -51 0
3 -49 -51 0
51 -49 -3 0
3 49 51 0
-51 0
52 53 0
54 53 0
-52 -54 -53 0
-48 53 -55 0
48 -53 -55 0
55 -53 -48 0
48 53 55 0
-55 0
56 57 0
58 57 0
-56 -58 -57 0
-52 57 -59 0
52 -57 -59 0
59 -57 -52 0
52 57 59 0
-59 0
60 61 0
62 61 0
-60 -62 -61 0
-56 61 -63 0
56 -61 -63 0
63 -61 -56 0
56 61 63 0
-63 0
64 65 0
66 65 0
-64 -66 -65 0
-60 65 -67 0
60 -65 -67 0
67 -65 -60 0
60 65 67 0
-67 0
68 69 0
70 69 0
-68 -70 -69 0
-64 69 -71 0
64 -69 -71 0
71 -69 -64 0
64 69 71 0
-71 0
72 73 0
74 73 0
-72 -74 -73 0
-68 73 -75 0
68 -73 -75 0
75 -73 -68 0
68 73 75 0
-75 0
76 77 0
78 77 0
-76 -78 -77 0
-72 77 -79 0
72 -77 -79 0
79 -77 -72 0
72 77 79 0
-79 0
80 81 0
82 81 0
-80 -82 -81 0
-76 81 -83 0
76 -81 -83 0
83 -81 -76 0
76 81 83 0
-83 0
78 84 0
82 84 0
74 84 0
85 84 0
-86 0
-80 84 -87 0
80 -84 -87 0
87 -84 -80 0
80 84 87 0
-87 0
88 89 0
90 89 0
-88 -90 -89 0
-4 89 -91 0
4 -89 -91 0
91 -89 -4 0
4 89 91 0
-91 0
92 93 0
94 93 0
-92 -94 -93 0
-88 93 -95 0
88 -93 -95 0
95 -93 -88 0
88 93 95 0
-95 0
96 97 0
98 97 0
-96 -98 -97 0
-92 97 -99 0
92 -97 -99 0
99 -97 -92 0
92 97 99 0
-99 0
100 101 0
102 101 0
-100 -102 -101 0
-96 101 -103 0
96 -101 -103 0
103 -101 -96 0
96 101 103 0
-103 0
104 105 0
106 105 0
-104 -106 -105 0
-100 105 -107 0
100 -105 -107 0
107 -105 -100 0
100 105 107 0
-107 0
108 109 0
110 109 0
-108 -110 -109 0
-104 109 -111 0
104 -109 -111 0
111 -109 -104 0
104 109 111 0
-111 0
112 113 0
114 113 0
-112 -114 -113 0
-108 113 -115 0
108 -113 -115 0
115 -113 -108 0
108 113 115 0
-115 0
116 117 0
118 117 0
-116 -118 -117 0
-112 117 -119 0
112 -117 -119 0
119 -117 -112 0
112 117 119 0
-119 0
120 121 0
122 121 0
-120 -122 -121 0
-116 121 -123 0
116 -121 -123 0
123 -121 -116 0
116 121 123 0
-123 0
124 125 0
126 125 0
-124 -126 -125 0
-120 125 -127 0
120 -125 -127 0
127 -125 -120 0
120 125 127 0
-127 0
126 128 0
129 128 0
110 128 0
114 128 0
118 128 0
122 128 0
-130 0
-124 128 -131 0
124 -128 -131 0
131 -128 -124 0
124 128 131 0
-131 0
132 133 0
134 133 0
-132 -134 -133 0
-5 133 -135 0
5 -133 -135 0
135 -133 -5 0
5 133 135 0
-135 0
16 136 0
137 136 0
-16 -137 -136 0
-132 136 -138 0
132 -136 -138 0
138 -136 -132 0
132 136 138 0
-138 0
139 140 0
141 140 0
-139 -141 -140 0
-6 140 -142 0
6 -140 -142 0
142 -140 -6 0
6 140 142 0
-142 0
143 144 0
145 144 0
-143 -145 -144 0
-139 144 -146 0
139 -144 -146 0
146 -144 -139 0
139 144 146 0
-146 0
147 148 0
149 148 0
-147 -149 -148 0
-143 148 -150 0
143 -148 -150 0
150 -148 -143 0
143 148 150 0
-150 0
151 152 0
153 152 0
-151 -153 -152 0
-147 152 -154 0
147 -152 -154 0
154 -152 -147 0
147 152 154 0
-154 0
155 156 0
157 156 0
-155 -157 -156 0
-151 156 -158 0
151 -156 -158 0
158 -156 -151 0
151 156 158 0
-158 0
145 159 0
149 159 0
153 159 0
157 159 0
160 159 0
-161 0
-155 159 -162 0
155 -159 -162 0
162 -159 -155 0
155 159 162 0
-162 0
163 164 0
165 164 0
-163 -165 -164 0
-7 164 -166 0
7 -164 -166 0
166 -164 -7 0
7 164 166 0
-166 0
167 168 0
169 168 0
-167 -169 -168 0
-163 168 -170 0
163 -168 -170 0
170 -168 -163 0
163 168 170 0
-170 0
171 172 0
173 172 0
-171 -173 -172 0
-167 172 -174 0
167 -172 -174 0
174 -172 -167 0
167 172 174 0
-174 0
175 176 0
177 176 0
-175 -177 -176 0
-171 176 -178 0
171 -176 -178 0
178 -176 -171 0
171 176 178 0
-178 0
179 180 0
181 180 0
-179 -181 -180 0
-175 180 -182 0
175 -180 -182 0
182 -180 -175 0
175 180 182 0
-182 0
183 184 0
185 184 0
-183 -185 -184 0
-179 184 -186 0
179 -184 -186 0
186 -184 -179 0
179 184 186 0
-186 0
187 188 0
189 188 0
-187 -189 -188 0
-183 188 -190 0
183 -188 -190 0
190 -188 -183 0
183 188 190 0
-190 0
191 192 0
193 192 0
-191 -193 -192 0
-187 192 -194 0
187 -192 -194 0
194 -192 -187 0
187 192 194 0
-194 0
195 196 0
197 196 0
-195 -197 -196 0
-191 196 -198 0
191 -196 -198 0
198 -196 -191 0
191 196 198 0
-198 0
199 200 0
201 200 0
-199 -201 -200 0
-195 200 -202 0
195 -200 -202 0
202 -200 -195 0
195 200 202 0
-202 0
203 204 0
205 204 0
-203 -205 -204 0
-199 204 -206 0
199 -204 -206 0
206 -204 -199 0
199 204 206 0
-206 0
193 207 0
197 207 0
201 207 0
205 207 0
189 207 0
208 207 0
-209 0
-203 207 -210 0
203 -207 -210 0
210 -207 -203 0
203 207 210 0
-210 0
211 212 0
213 212 0
-211 -213 -212 0
-8 212 -214 0
8 -212 -214 0
214 -212 -8 0
8 212 214 0
-214 0
215 216 0
217 216 0
-215 -217 -216 0
-211 216 -218 0
211 -216 -218 0
218 -216 -211 0
211 216 218 0
-218 0
219 220 0
221 220 0
-219 -221 -220 0
-215 220 -222 0
215 -220 -222 0
222 -220 -215 0
215 220 222 0
-222 0
223 224 0
225 224 0
-223 -225 -224 0
-219 224 -226 0
219 -224 -226 0
226 -224 -219 0
219 224 226 0
-226 0
227 228 0
229 228 0
-227 -229 -228 0
-223 228 -230 0
223 -228 -230 0
230 -228 -223 0
223 228 230 0
-230 0
231 232 0
233 232 0
-231 -233 -232 0
-227 232 -234 0
227 -232 -234 0
234 -232 -227 0
227 232 234 0
-234 0
235 236 0
233 236 0
-235 -233 -236 0
-231 236 -237 0
231 -236 -237 0
237 -236 -231 0
231 236 237 0
-237 0
238 239 0
240 239 0
-238 -240 -239 0
-9 239 -241 0
9 -239 -241 0
241 -239 -9 0
9 239 241 0
-241 0
242 243 0
244 243 0
-242 -244 -243 0
-238 243 -245 0
238 -243 -245 0
245 -243 -238 0
238 243 245 0
-245 0
246 247 0
248 247 0
-246 -248 -247 0
-242 247 -249 0
242 -247 -249 0
249 -247 -242 0
242 247 249 0
-249 0
250 251 0
252 251 0
-250 -252 -251 0
-246 251 -253 0
246 -251 -253 0
253 -251 -246 0
246 251 253 0
-253 0
254 255 0
256 255 0
-254 -256 -255 0
-250 255 -257 0
250 -255 -257 0
257 -255 -250 0
250 255 257 0
-257 0
258 259 0
260 259 0
-258 -260 -259 0
-254 259 -261 0
254 -259 -261 0
261 -259 -254 0
254 259 261 0
-261 0
262 263 0
264 263 0
-262 -264 -263 0
-258 263 -265 0
258 -263 -265 0
265 -263 -258 0
258 263 265 0
-265 0
266 267 0
268 267 0
-266 -268 -267 0
-262 267 -269 0
262 -267 -269 0
269 -267 -262 0
262 267 269 0
-269 0
270 271 0
272 271 0
-270 -272 -271 0
-266 271 -273 0
266 -271 -273 0
273 -271 -266 0
266 271 273 0
-273 0
274 275 0
276 275 0
-274 -276 -275 0
-270 275 -277 0
270 -275 -277 0
277 -275 -270 0
270 275 277 0
-277 0
278 279 0
280 279 0
-278 -280 -279 0
-274 279 -281 0
274 -279 -281 0
281 -279 -274 0
274 279 281 0
-281 0
264 282 0
268 282 0
276 282 0
272 282 0
280 282 0
283 282 0
-284 0
-278 282 -285 0
278 -282 -285 0
285 -282 -278 0
278 282 285 0
-285 0
286 287 0
288 287 0
-286 -288 -287 0
-10 287 -289 0
10 -287 -289 0
289 -287 -10 0
10 287 289 0
-289 0
290 291 0
292 291 0
-290 -292 -291 0
-286 291 -293 0
286 -291 -293 0
293 -291 -286 0
286 291 293 0
-293 0
294 295 0
296 295 0
-294 -296 -295 0
-290 295 -297 0
290 -295 -297 0
297 -295 -290 0
290 295 297 0
-297 0
72 298 0
299 298 0
-72 -299 -298 0
-294 298 -300 0
294 -298 -300 0
300 -298 -294 0
294 298 300 0
-300 0
11 -301 0
-301 -14 0
18 -301 0
22 -301 0
26 -301 0
30 -301 0
-301 -34 0
38 -301 0
42 -301 0
-301 -45 0
50 -301 0
54 -301 0
-301 -58 0
-301 -62 0
-301 -66 0
-301 -70 0
74 -301 0
-301 -78 0
-301 -82 0
85 -301 0
90 -301 0
94 -301 0
-301 -98 0
102 -301 0
106 -301 0
110 -301 0
114 -301 0
118 -301 0
122 -301 0
-301 -126 0
-301 -129 0
-301 -134 0
-301 -137 0
-301 -141 0
-301 -145 0
-301 -149 0
153 -301 0
157 -301 0
160 -301 0
165 -301 0
-301 -169 0
173 -301 0
-301 -177 0
181 -301 0
-301 -185 0
189 -301 0
-301 -193 0
-301 -197 0
-301 -201 0
-301 -205 0
208 -301 0
-301 -213 0
-301 -217 0
-301 -221 0
225 -301 0
229 -301 0
233 -301 0
-301 -235 0
-301 -240 0
-301 -244 0
248 -301 0
-301 -252 0
-301 -256 0
-301 -260 0
-301 -264 0
-301 -268 0
272 -301 0
-301 -276 0
280 -301 0
283 -301 0
288 -301 0
292 -301 0
296 -301 0
-301 -299 0
301 0
-302 0
-303 0
-304 0
-305 0
-306 0
-307 0
-308 0
-309 0
